(declare-fun a () String)
(declare-fun b () String)
(declare-fun e () String)
(declare-fun shifted1_T0_2 () String)
(declare-fun shifted1_T1_2 () String)
(declare-fun shifted1_T2_2 () String)
(assert (or (and (and (and (and (and (and (and (and (and (and (and (and (and (and (and (and (and (and (and (and (and (and (and (and (and (and (and (and (and (and (and (and (and (and (and (and (and (and (and (and (and (and (and (and (and (and (and (and (and (and (and (and (and (and (and (and (and (and (and (and (and (and (and (and (and (and (and (and (and (and (and (and (and (and (and (and (and (and (and (and (and (and (and (and (and (and (and (and (and (and (and (and (and (and (and (and (and (and (and (and (and (and (and (and (and (and (and (and (and (and (and (and (and (and (and (and (and (and (and (and (and (and (and (and (and (and (and (and (and (and (and (and (and (and (and (and (and (and (and (and (and (and (and (and (and (and (and (and (and (and (and (and (and (and (and (and (and (and (and (and (and (and (and (and (and (and (and (and (and (and (and (and (and (and (and (and (and (and (and (and (and (and (and (and (and (and (and (and (and (and (and (and (and (and (and (and (and (and (and (and (and (and (and (and (and (and (and (and (and (and (and (and (and (>= 1 0))) (>= (+ (str.indexof (str.substr (str.substr a (str.len shifted1_T0_2) 0) 1 (- (str.len (str.substr a (str.len shifted1_T0_2) (str.len b))))) " " 0) 1) 0)))))))) (>= (- 0) 0))))))))))))))))))))) (>= 0 0))))) (>= (- (str.indexof (str.substr b 1 (- (str.len (str.substr a (str.len shifted1_T0_2) (str.len b))) 1)) " " 0) 0) 0))))))))))))))))))))))))))))))) (>= 0 0)))))))))))))) (>= 1 0))))))) (>= 1 0)))))) (>= (- 0) 0)))))) (>= 0 0))))))))))))))) (>= 1 0)) (>= (- (str.len (str.substr a (str.len shifted1_T0_2) (str.len b))) 1) 0)))))) (>= 1 0)))))) (>= (- (str.indexof (str.substr b 1 (- (str.len (str.substr a 0 (str.len b))) 1)) " " 0) 0) 0))))))))))))))))))) (>= (- 0) 0))) (>= (- (str.len b) 1) 0)))))))))))))))))))) (>= 1 0)))))))) (>= 0 0))))))))))) (>= 0 0)))))) (>= 1 0)))) (>= 0 0))))) (>= (- (str.len b) 1) 0))))))) (>= (- (str.len (str.substr a 0 (str.len b))) 1) 0))))) (>= 0 0)))))))))) (>= 1 0))))))))))))
(assert (= e (str.++ (str.++ shifted1_T1_2 "") (str.++ shifted1_T2_2 "2S3O9"))))
(check-sat)
